4
21
41
40	31
1	4	7	11	6	7	11	4	24	2	
2	1	5	5	
3	1	10	3	
4	4	15	7	11	7	6	4	6	11	
5	1	6	4	
6	1	14	3	
7	2	7	11	15	2	
8	1	7	4	
9	2	23	4	12	7	
10	1	21	4	
11	1	21	3	
12	3	31	2	29	3	15	7	
13	1	8	12	
14	4	10	5	6	5	30	3	20	2	
15	1	31	3	
16	1	7	5	
17	4	6	6	4	4	6	8	9	3	
18	2	6	13	28	3	
19	1	21	4	
20	3	4	13	14	3	20	4	
21	2	13	5	5	12	
